% Logging successfully configured
%%%mzn-stat: initTime=0.017120732
%%%mzn-stat: objective=311
%%%mzn-stat: nodes=11879
%%%mzn-stat: restarts=0
%%%mzn-stat: peakDepth=796
%%%mzn-stat: solveTime=0.51484683
%%%mzn-stat: variables=1315
%%%mzn-stat: propagators=1003
%%%mzn-stat: failures=452
%%%mzn-stat: propagations=77204
%%%mzn-stat: nogoods=452
%%%mzn-stat: numAtomicConstraintsPropagated=0
%%%mzn-stat: allDifferentNumber1TotalHallSetSize=4942
%%%mzn-stat: allDifferentNumber1NumberOfConflicts=446
%%%mzn-stat: allDifferentNumber1MaxHallSetSize=93
%%%mzn-stat: allDifferentNumber1PropagationsTotal=15463
%%%mzn-stat: allDifferentNumber1PropagationsThatFoundConflict=446
%%%mzn-stat: circuitNumber2PropagationsThatFoundConflict=2
%%%mzn-stat: circuitNumber2TotalFixedEdgesAtConflict=159
%%%mzn-stat: circuitNumber2NumberOfConflicts=2
%%%mzn-stat: circuitNumber2PropagationsThatPruned=235
%%%mzn-stat: circuitNumber2PropagationsTotal=11196
%%%mzn-stat: AverageConflictSize=9.123893805309734
%%%mzn-stat: NumUnitNogoodsLearned=0
%%%mzn-stat: AverageLearnedNogoodLength=10.446902654867257
%%%mzn-stat: AverageBacktrackAmount=0
%%%mzn-stat: AverageLbd=9.77212389380531
%%%mzn-stat: 2AutonomousSearchNumBackupCalled=707
%%%mzn-stat: 2AutonomousSearchNumPredicatesRemoved=0
%%%mzn-stat: 2AutonomousSearchNumCalls=708
%%%mzn-stat: 2AutonomousSearchNumPredicatesAdded=1321
%%%mzn-stat: 2AutonomousSearchAverageSizeOfHeap=1.865819209039548
%%%mzn-stat: 2AutonomousSearchNumAssignedPredicatesEncountered=1321
%%%mzn-stat-end
maxleg = 311;
succ = array1d(1..100,[22, 15, 9, 10, 40, 13, 31, 25, 11, 8, 17, 33, 27, 21, 5, 3, 19, 4, 28, 2, 35, 26, 62, 30, 38, 32, 44, 29, 14, 34, 1, 51, 18, 39, 50, 61, 20, 36, 42, 54, 12, 64, 37, 48, 24, 70, 16, 53, 43, 52, 71, 78, 63, 56, 41, 81, 7, 57, 47, 92, 60, 76, 75, 89, 49, 55, 23, 59, 6, 93, 84, 65, 77, 45, 82, 79, 100, 46, 85, 74, 94, 87, 58, 90, 88, 69, 95, 98, 97, 73, 96, 83, 80, 99, 67, 86, 72, 66, 91, 68]);
% time elapsed: 4.81 s
----------
%%%mzn-stat: initTime=0.017120732
%%%mzn-stat: objective=255
%%%mzn-stat: nodes=14071
%%%mzn-stat: restarts=0
%%%mzn-stat: peakDepth=796
%%%mzn-stat: solveTime=0.598927184
%%%mzn-stat: variables=1315
%%%mzn-stat: propagators=1003
%%%mzn-stat: failures=649
%%%mzn-stat: propagations=90744
%%%mzn-stat: nogoods=649
%%%mzn-stat: numAtomicConstraintsPropagated=0
%%%mzn-stat: allDifferentNumber1TotalHallSetSize=6705
%%%mzn-stat: allDifferentNumber1NumberOfConflicts=628
%%%mzn-stat: allDifferentNumber1MaxHallSetSize=93
%%%mzn-stat: allDifferentNumber1PropagationsTotal=17902
%%%mzn-stat: allDifferentNumber1PropagationsThatFoundConflict=628
%%%mzn-stat: circuitNumber2PropagationsThatFoundConflict=14
%%%mzn-stat: circuitNumber2TotalFixedEdgesAtConflict=967
%%%mzn-stat: circuitNumber2NumberOfConflicts=14
%%%mzn-stat: circuitNumber2PropagationsThatPruned=309
%%%mzn-stat: circuitNumber2PropagationsTotal=12804
%%%mzn-stat: AverageConflictSize=9.99537750385208
%%%mzn-stat: NumUnitNogoodsLearned=0
%%%mzn-stat: AverageLearnedNogoodLength=12.551617873651772
%%%mzn-stat: AverageBacktrackAmount=0
%%%mzn-stat: AverageLbd=10.166409861325116
%%%mzn-stat: 2AutonomousSearchNumBackupCalled=1400
%%%mzn-stat: 2AutonomousSearchNumPredicatesRemoved=0
%%%mzn-stat: 2AutonomousSearchNumCalls=1402
%%%mzn-stat: 2AutonomousSearchNumPredicatesAdded=3014
%%%mzn-stat: 2AutonomousSearchAverageSizeOfHeap=2.6854493580599144
%%%mzn-stat: 2AutonomousSearchNumAssignedPredicatesEncountered=3765
%%%mzn-stat-end
maxleg = 255;
succ = array1d(1..100,[22, 15, 9, 10, 40, 13, 31, 25, 11, 8, 17, 33, 27, 21, 5, 3, 19, 4, 28, 2, 35, 26, 62, 30, 38, 32, 44, 29, 14, 34, 57, 51, 18, 39, 50, 83, 20, 36, 42, 54, 12, 64, 37, 48, 24, 70, 16, 53, 43, 52, 71, 78, 63, 56, 41, 81, 58, 60, 47, 61, 1, 76, 75, 89, 49, 55, 23, 59, 6, 93, 84, 65, 77, 45, 82, 79, 100, 46, 85, 74, 94, 87, 92, 90, 88, 69, 95, 98, 97, 73, 96, 7, 80, 99, 67, 86, 72, 66, 91, 68]);
% time elapsed: 4.88 s
----------
%%%mzn-stat: initTime=0.017120732
%%%mzn-stat: objective=247
%%%mzn-stat: nodes=14856
%%%mzn-stat: restarts=0
%%%mzn-stat: peakDepth=796
%%%mzn-stat: solveTime=0.603926815
%%%mzn-stat: variables=1315
%%%mzn-stat: propagators=1003
%%%mzn-stat: failures=650
%%%mzn-stat: propagations=92634
%%%mzn-stat: nogoods=650
%%%mzn-stat: numAtomicConstraintsPropagated=0
%%%mzn-stat: allDifferentNumber1TotalHallSetSize=6711
%%%mzn-stat: allDifferentNumber1NumberOfConflicts=629
%%%mzn-stat: allDifferentNumber1MaxHallSetSize=93
%%%mzn-stat: allDifferentNumber1PropagationsTotal=18028
%%%mzn-stat: allDifferentNumber1PropagationsThatFoundConflict=629
%%%mzn-stat: circuitNumber2PropagationsThatFoundConflict=14
%%%mzn-stat: circuitNumber2TotalFixedEdgesAtConflict=967
%%%mzn-stat: circuitNumber2NumberOfConflicts=14
%%%mzn-stat: circuitNumber2PropagationsThatPruned=311
%%%mzn-stat: circuitNumber2PropagationsTotal=12893
%%%mzn-stat: AverageConflictSize=9.989230769230769
%%%mzn-stat: NumUnitNogoodsLearned=0
%%%mzn-stat: AverageLearnedNogoodLength=12.541538461538462
%%%mzn-stat: AverageBacktrackAmount=0
%%%mzn-stat: AverageLbd=10.156923076923077
%%%mzn-stat: 2AutonomousSearchNumBackupCalled=2098
%%%mzn-stat: 2AutonomousSearchNumPredicatesRemoved=0
%%%mzn-stat: 2AutonomousSearchNumCalls=2101
%%%mzn-stat: 2AutonomousSearchNumPredicatesAdded=3020
%%%mzn-stat: 2AutonomousSearchAverageSizeOfHeap=2.957163255592575
%%%mzn-stat: 2AutonomousSearchNumAssignedPredicatesEncountered=6213
%%%mzn-stat-end
maxleg = 247;
succ = array1d(1..100,[22, 15, 9, 10, 40, 13, 31, 25, 11, 8, 17, 33, 27, 21, 5, 3, 19, 4, 28, 2, 35, 26, 62, 30, 38, 32, 44, 29, 14, 34, 57, 51, 18, 39, 50, 83, 20, 36, 42, 54, 12, 64, 37, 48, 24, 70, 16, 53, 43, 52, 71, 78, 63, 56, 41, 81, 58, 60, 47, 61, 1, 76, 75, 89, 49, 55, 23, 59, 86, 93, 84, 65, 77, 45, 82, 79, 100, 46, 85, 74, 94, 87, 92, 90, 88, 6, 95, 98, 97, 73, 96, 7, 80, 99, 67, 69, 72, 66, 91, 68]);
% time elapsed: 4.90 s
----------
%%%mzn-stat: initTime=0.017120732
%%%mzn-stat: objective=242
%%%mzn-stat: nodes=15902
%%%mzn-stat: restarts=0
%%%mzn-stat: peakDepth=796
%%%mzn-stat: solveTime=0.618716522
%%%mzn-stat: variables=1315
%%%mzn-stat: propagators=1003
%%%mzn-stat: failures=665
%%%mzn-stat: propagations=96714
%%%mzn-stat: nogoods=665
%%%mzn-stat: numAtomicConstraintsPropagated=0
%%%mzn-stat: allDifferentNumber1TotalHallSetSize=6811
%%%mzn-stat: allDifferentNumber1NumberOfConflicts=644
%%%mzn-stat: allDifferentNumber1MaxHallSetSize=93
%%%mzn-stat: allDifferentNumber1PropagationsTotal=18548
%%%mzn-stat: allDifferentNumber1PropagationsThatFoundConflict=644
%%%mzn-stat: circuitNumber2PropagationsThatFoundConflict=14
%%%mzn-stat: circuitNumber2TotalFixedEdgesAtConflict=967
%%%mzn-stat: circuitNumber2NumberOfConflicts=14
%%%mzn-stat: circuitNumber2PropagationsThatPruned=331
%%%mzn-stat: circuitNumber2PropagationsTotal=13260
%%%mzn-stat: AverageConflictSize=9.962406015037594
%%%mzn-stat: NumUnitNogoodsLearned=0
%%%mzn-stat: AverageLearnedNogoodLength=12.518796992481203
%%%mzn-stat: AverageBacktrackAmount=0
%%%mzn-stat: AverageLbd=10.111278195488723
%%%mzn-stat: 2AutonomousSearchNumBackupCalled=2793
%%%mzn-stat: 2AutonomousSearchNumPredicatesRemoved=0
%%%mzn-stat: 2AutonomousSearchNumCalls=2797
%%%mzn-stat: 2AutonomousSearchNumPredicatesAdded=3282
%%%mzn-stat: 2AutonomousSearchAverageSizeOfHeap=3.098677154093672
%%%mzn-stat: 2AutonomousSearchNumAssignedPredicatesEncountered=8667
%%%mzn-stat-end
maxleg = 242;
succ = array1d(1..100,[22, 15, 9, 10, 40, 13, 31, 25, 11, 8, 17, 33, 27, 21, 5, 3, 19, 4, 28, 2, 35, 26, 62, 30, 38, 32, 44, 29, 14, 34, 57, 51, 18, 39, 50, 83, 20, 36, 42, 56, 12, 64, 37, 48, 24, 70, 16, 53, 43, 52, 71, 78, 63, 81, 41, 54, 58, 60, 47, 61, 1, 76, 75, 89, 49, 55, 23, 59, 86, 93, 84, 65, 77, 45, 82, 79, 100, 46, 85, 74, 94, 87, 92, 90, 88, 6, 95, 98, 97, 73, 96, 7, 80, 99, 67, 69, 72, 66, 91, 68]);
% time elapsed: 4.91 s
----------
%%%mzn-stat: initTime=0.017120732
%%%mzn-stat: objective=238
%%%mzn-stat: nodes=16779
%%%mzn-stat: restarts=0
%%%mzn-stat: peakDepth=796
%%%mzn-stat: solveTime=0.62883573
%%%mzn-stat: variables=1315
%%%mzn-stat: propagators=1003
%%%mzn-stat: failures=672
%%%mzn-stat: propagations=99354
%%%mzn-stat: nogoods=672
%%%mzn-stat: numAtomicConstraintsPropagated=0
%%%mzn-stat: allDifferentNumber1TotalHallSetSize=6879
%%%mzn-stat: allDifferentNumber1NumberOfConflicts=651
%%%mzn-stat: allDifferentNumber1MaxHallSetSize=93
%%%mzn-stat: allDifferentNumber1PropagationsTotal=18822
%%%mzn-stat: allDifferentNumber1PropagationsThatFoundConflict=651
%%%mzn-stat: circuitNumber2PropagationsThatFoundConflict=14
%%%mzn-stat: circuitNumber2TotalFixedEdgesAtConflict=967
%%%mzn-stat: circuitNumber2NumberOfConflicts=14
%%%mzn-stat: circuitNumber2PropagationsThatPruned=338
%%%mzn-stat: circuitNumber2PropagationsTotal=13445
%%%mzn-stat: AverageConflictSize=10.014880952380953
%%%mzn-stat: NumUnitNogoodsLearned=0
%%%mzn-stat: AverageLearnedNogoodLength=12.595238095238095
%%%mzn-stat: AverageBacktrackAmount=0
%%%mzn-stat: AverageLbd=10.132440476190476
%%%mzn-stat: 2AutonomousSearchNumBackupCalled=3492
%%%mzn-stat: 2AutonomousSearchNumPredicatesRemoved=0
%%%mzn-stat: 2AutonomousSearchNumCalls=3497
%%%mzn-stat: 2AutonomousSearchNumPredicatesAdded=3542
%%%mzn-stat: 2AutonomousSearchAverageSizeOfHeap=3.1818701744352302
%%%mzn-stat: 2AutonomousSearchNumAssignedPredicatesEncountered=11127
%%%mzn-stat-end
maxleg = 238;
succ = array1d(1..100,[22, 15, 9, 10, 40, 13, 31, 25, 11, 8, 17, 33, 27, 21, 5, 3, 19, 4, 28, 2, 35, 26, 62, 30, 38, 32, 44, 29, 14, 34, 57, 51, 18, 39, 50, 83, 20, 36, 42, 91, 12, 64, 37, 48, 24, 70, 16, 53, 43, 52, 71, 78, 63, 56, 41, 81, 58, 60, 47, 61, 1, 76, 75, 89, 49, 55, 23, 59, 86, 93, 84, 65, 77, 45, 82, 79, 100, 46, 85, 74, 94, 87, 92, 90, 88, 6, 95, 98, 97, 73, 54, 7, 80, 99, 67, 69, 72, 66, 96, 68]);
% time elapsed: 4.92 s
----------
%%%mzn-stat: initTime=0.017120732
%%%mzn-stat: objective=206
%%%mzn-stat: nodes=17602
%%%mzn-stat: restarts=0
%%%mzn-stat: peakDepth=796
%%%mzn-stat: solveTime=0.636440243
%%%mzn-stat: variables=1315
%%%mzn-stat: propagators=1003
%%%mzn-stat: failures=681
%%%mzn-stat: propagations=101814
%%%mzn-stat: nogoods=681
%%%mzn-stat: numAtomicConstraintsPropagated=0
%%%mzn-stat: allDifferentNumber1TotalHallSetSize=6901
%%%mzn-stat: allDifferentNumber1NumberOfConflicts=659
%%%mzn-stat: allDifferentNumber1MaxHallSetSize=93
%%%mzn-stat: allDifferentNumber1PropagationsTotal=19037
%%%mzn-stat: allDifferentNumber1PropagationsThatFoundConflict=659
%%%mzn-stat: circuitNumber2PropagationsThatFoundConflict=15
%%%mzn-stat: circuitNumber2TotalFixedEdgesAtConflict=1062
%%%mzn-stat: circuitNumber2NumberOfConflicts=15
%%%mzn-stat: circuitNumber2PropagationsThatPruned=358
%%%mzn-stat: circuitNumber2PropagationsTotal=13600
%%%mzn-stat: AverageConflictSize=9.958883994126285
%%%mzn-stat: NumUnitNogoodsLearned=0
%%%mzn-stat: AverageLearnedNogoodLength=12.697503671071953
%%%mzn-stat: AverageBacktrackAmount=0
%%%mzn-stat: AverageLbd=10.218795888399413
%%%mzn-stat: 2AutonomousSearchNumBackupCalled=4180
%%%mzn-stat: 2AutonomousSearchNumPredicatesRemoved=0
%%%mzn-stat: 2AutonomousSearchNumCalls=4186
%%%mzn-stat: 2AutonomousSearchNumPredicatesAdded=3686
%%%mzn-stat: 2AutonomousSearchAverageSizeOfHeap=3.2462971810797896
%%%mzn-stat: 2AutonomousSearchNumAssignedPredicatesEncountered=13589
%%%mzn-stat-end
maxleg = 206;
succ = array1d(1..100,[22, 15, 9, 10, 40, 13, 31, 25, 11, 8, 17, 33, 27, 21, 5, 3, 19, 4, 28, 2, 35, 26, 62, 30, 38, 32, 44, 29, 14, 34, 57, 51, 18, 39, 50, 83, 20, 36, 42, 91, 12, 64, 37, 48, 24, 70, 16, 53, 43, 52, 71, 78, 63, 56, 41, 81, 58, 92, 47, 61, 1, 76, 75, 89, 49, 55, 23, 59, 86, 93, 84, 65, 77, 45, 82, 79, 100, 46, 85, 74, 94, 87, 7, 90, 88, 6, 95, 98, 97, 73, 54, 60, 80, 99, 67, 69, 72, 66, 96, 68]);
% time elapsed: 4.93 s
----------
%%%mzn-stat: initTime=0.017120732
%%%mzn-stat: objective=204
%%%mzn-stat: nodes=18400
%%%mzn-stat: restarts=0
%%%mzn-stat: peakDepth=796
%%%mzn-stat: solveTime=0.643368808
%%%mzn-stat: variables=1315
%%%mzn-stat: propagators=1003
%%%mzn-stat: failures=688
%%%mzn-stat: propagations=104199
%%%mzn-stat: nogoods=688
%%%mzn-stat: numAtomicConstraintsPropagated=0
%%%mzn-stat: allDifferentNumber1TotalHallSetSize=6929
%%%mzn-stat: allDifferentNumber1NumberOfConflicts=666
%%%mzn-stat: allDifferentNumber1MaxHallSetSize=93
%%%mzn-stat: allDifferentNumber1PropagationsTotal=19242
%%%mzn-stat: allDifferentNumber1PropagationsThatFoundConflict=666
%%%mzn-stat: circuitNumber2PropagationsThatFoundConflict=15
%%%mzn-stat: circuitNumber2TotalFixedEdgesAtConflict=1062
%%%mzn-stat: circuitNumber2NumberOfConflicts=15
%%%mzn-stat: circuitNumber2PropagationsThatPruned=374
%%%mzn-stat: circuitNumber2PropagationsTotal=13748
%%%mzn-stat: AverageConflictSize=9.911337209302326
%%%mzn-stat: NumUnitNogoodsLearned=0
%%%mzn-stat: AverageLearnedNogoodLength=12.627906976744185
%%%mzn-stat: AverageBacktrackAmount=0
%%%mzn-stat: AverageLbd=10.164244186046512
%%%mzn-stat: 2AutonomousSearchNumBackupCalled=4841
%%%mzn-stat: 2AutonomousSearchNumPredicatesRemoved=0
%%%mzn-stat: 2AutonomousSearchNumCalls=4848
%%%mzn-stat: 2AutonomousSearchNumPredicatesAdded=3745
%%%mzn-stat: 2AutonomousSearchAverageSizeOfHeap=3.3114686468646863
%%%mzn-stat: 2AutonomousSearchNumAssignedPredicatesEncountered=16054
%%%mzn-stat-end
maxleg = 204;
succ = array1d(1..100,[22, 15, 9, 10, 40, 13, 31, 25, 11, 8, 17, 33, 27, 21, 5, 3, 19, 4, 28, 2, 35, 26, 62, 30, 38, 32, 44, 29, 14, 34, 57, 51, 18, 39, 50, 83, 20, 36, 42, 91, 12, 64, 37, 48, 24, 70, 16, 53, 43, 52, 71, 78, 63, 56, 41, 81, 58, 92, 47, 61, 1, 76, 75, 89, 49, 55, 23, 59, 86, 93, 84, 65, 77, 45, 82, 79, 100, 46, 98, 74, 94, 87, 7, 90, 88, 6, 95, 66, 97, 73, 54, 60, 80, 99, 67, 69, 72, 85, 96, 68]);
% time elapsed: 4.94 s
----------
=====ERROR=====
% time elapsed: 1740.65 s
